p cnf 59 217
2 -3 -4 0
-2 3 -4 0
2 3 4 0
-2 -3 4 0
-6 4 0
-6 5 0
-4 -5 6 0
1 -6 -7 0
-1 6 -7 0
1 6 7 0
-1 -6 7 0
9 -1 0
9 3 0
1 -3 -9 0
10 8 0
10 9 0
-8 -9 -10 0
10 11 0
-10 11 0
12 -11 0
12 3 0
11 -3 -12 0
13 -12 0
13 10 0
12 -10 -13 0
-8 -11 -14 0
8 11 -14 0
-8 11 14 0
8 -11 14 0
-15 -10 0
-15 14 0
10 -14 15 0
16 -15 0
16 5 0
15 -5 -16 0
17 -13 0
17 16 0
13 -16 -17 0
-18 7 0
-18 17 0
-7 -17 18 0
1 3 -19 0
-1 -3 -19 0
1 -3 19 0
-1 3 19 0
21 9 0
21 -20 0
-9 20 -21 0
-21 -9 -22 0
21 9 -22 0
-21 9 22 0
21 -9 22 0
-9 -8 -23 0
9 8 -23 0
-9 8 23 0
9 -8 23 0
24 21 0
24 23 0
-21 -23 -24 0
25 22 0
25 -24 0
-22 24 -25 0
-19 -25 -26 0
19 25 -26 0
-19 25 26 0
19 -25 26 0
3 4 -27 0
-3 -4 -27 0
3 -4 27 0
-3 4 27 0
29 -3 0
29 -28 0
3 28 -29 0
-31 30 0
-31 11 0
-30 -11 31 0
32 20 0
32 30 0
-20 -30 -32 0
31 -32 -33 0
-31 32 -33 0
31 32 33 0
-31 -32 33 0
29 33 -34 0
-29 -33 -34 0
29 -33 34 0
-29 33 34 0
35 -27 0
35 -34 0
27 34 -35 0
-36 21 -37 0
36 -21 -37 0
-36 -21 37 0
36 21 37 0
-35 37 -38 0
35 -37 -38 0
-35 -37 38 0
35 37 38 0
26 38 -39 0
-26 -38 -39 0
26 -38 39 0
-26 38 39 0
-40 36 0
-40 12 0
-36 -12 40 0
41 5 0
41 -11 0
-5 11 -41 0
-42 -14 0
-42 -11 0
14 11 42 0
-43 -9 0
-43 -36 0
9 36 43 0
-44 -9 0
-44 20 0
9 -20 44 0
-45 -43 0
-45 44 0
43 -44 45 0
45 28 -46 0
-45 -28 -46 0
45 -28 46 0
-45 28 46 0
47 -46 0
47 -11 0
46 11 -47 0
48 5 0
48 -11 0
-5 11 -48 0
-47 -48 -49 0
47 48 -49 0
-47 48 49 0
47 -48 49 0
50 42 0
50 49 0
-42 -49 -50 0
-43 -5 -51 0
43 5 -51 0
-43 5 51 0
43 -5 51 0
50 51 -52 0
-50 -51 -52 0
50 -51 52 0
-50 51 52 0
-41 52 -53 0
41 -52 -53 0
-41 -52 53 0
41 52 53 0
54 40 0
54 -53 0
-40 53 -54 0
56 55 0
56 -28 0
-55 28 -56 0
54 -56 -57 0
-54 56 -57 0
54 56 57 0
-54 -56 57 0
-39 -57 -58 0
39 57 -58 0
-39 57 58 0
39 -57 58 0
59 18 0
59 58 0
-18 -58 -59 0
5 46 0
-17 32 -4 18 3 21 0
5 48 15 -21 0
-18 -59 51 0
46 58 -17 -47 0
-58 -13 34 -54 -8 51 0
-41 -50 -47 -9 -18 0
-14 -10 -31 0
13 31 0
2 -34 -14 0
-3 7 9 0
-35 33 -2 0
31 1 35 34 8 0
4 22 45 23 -55 0
57 14 0
8 -55 24 0
34 32 -59 -24 -14 0
34 -22 0
-3 23 0
9 -26 -31 48 -13 35 0
-38 8 51 -17 0
2 -5 0
-14 52 53 -48 58 0
24 -25 -28 37 -15 0
43 -28 0
19 -51 20 -10 0
-59 39 47 -22 41 -58 0
7 18 -58 31 0
24 48 -55 0
3 -26 45 0
-26 57 15 0
26 -56 12 -59 0
-42 59 -13 -6 -27 0
-45 21 42 -59 0
-54 -57 15 20 -13 0
-58 -7 2 -23 -29 0
56 -24 -58 22 1 0
6 12 48 -15 14 53 0
-44 55 19 0
-14 59 27 11 -16 46 0
-47 -24 -29 -37 31 0
31 40 -20 -47 30 -18 0
-55 -19 30 10 0
34 -43 0
44 31 0
40 -55 -46 0
-43 58 0
-30 -32 -10 0
-52 32 38 34 0
-16 -30 0
59 0
